0, 551, 673, 1069, 582, 930, 1067, 747
551, 0, 266, 0, 705, 639, 679, 769
673, 266, 0, 599, 0, 0, 0, 1033
1069, 0, 599, 0, 1013, 0, 464, 0
582, 705, 0, 1013, 0, 560, 0, 179
930, 639, 0, 0, 560, 0, 204, 451
1067, 679, 0, 464, 0, 204, 0, 0
747, 769, 1033, 0, 179, 451, 0, 0
